
Gurobi 8.1.1 (win64, Python) logging started 02/09/21 13:10:09

Academic license - for non-commercial use only
Read LP format model from file C:\Users\JONASF~1\AppData\Local\Temp\tmptoeoc17o.pyomo.lp
Reading time = 2.91 seconds
x597315: 553395 rows, 562177 columns, 1642537 nonzeros
Changed value of parameter mipgap to 0.025
   Prev: 0.0001  Min: 0.0  Max: 1e+100  Default: 0.0001
Optimize a model with 553395 rows, 562177 columns and 1642537 nonzeros
Variable types: 483121 continuous, 79056 integer (79056 binary)
Coefficient statistics:
  Matrix range     [1e-01, 3e+02]
  Objective range  [1e-02, 8e+07]
  Bounds range     [1e+00, 2e+05]
  RHS range        [8e-03, 2e+04]
Presolve removed 264118 rows and 299238 columns
Presolve time: 4.19s
Presolved: 289277 rows, 262939 columns, 929631 nonzeros
Variable types: 183942 continuous, 78997 integer (78997 binary)

Root simplex log...

Iteration    Objective       Primal Inf.    Dual Inf.      Time
       0   -1.4631951e+08   5.547576e+06   0.000000e+00      8s
   59868   -8.3419961e+07   9.836149e+05   0.000000e+00     10s
   97459   -8.2814530e+07   6.228493e+05   0.000000e+00     15s
  111398   -8.1630562e+07   5.743003e+06   0.000000e+00     20s
  131646   -8.1067074e+07   2.981070e+05   0.000000e+00     25s
  160270   -8.0875078e+07   4.488317e+05   0.000000e+00     31s
  179021   -8.0429782e+07   3.926989e+06   0.000000e+00     36s
  188804   -8.0341478e+07   3.880496e+06   0.000000e+00     40s
  195203   -8.0322386e+07   4.142298e+06   0.000000e+00     45s
  200890   -8.0311983e+07   1.484918e+06   0.000000e+00     50s
  205259   -8.0304506e+07   1.255284e+06   0.000000e+00     55s
  210026   -8.0299858e+07   1.926389e+05   0.000000e+00     60s
  212039   -8.0299469e+07   0.000000e+00   0.000000e+00     64s

Root relaxation: objective -8.029947e+07, 212039 iterations, 55.76 seconds
Total elapsed time = 78.06s
Total elapsed time = 81.64s
Total elapsed time = 85.27s

    Nodes    |    Current Node    |     Objective Bounds      |     Work
 Expl Unexpl |  Obj  Depth IntInf | Incumbent    BestBd   Gap | It/Node Time

     0     0 -8.030e+07    0 9247          - -8.030e+07      -     -   95s
H    0     0                    -6.86366e+07 -8.030e+07  17.0%     -  106s
H    0     0                    -7.51404e+07 -8.030e+07  6.87%     -  119s
H    0     0                    -7.51404e+07 -8.030e+07  6.87%     -  131s
     0     0 -8.029e+07    0 11711 -7.514e+07 -8.029e+07  6.86%     -  164s
     0     0 -8.029e+07    0 12441 -7.514e+07 -8.029e+07  6.85%     -  221s
     0     0 -8.028e+07    0 11986 -7.514e+07 -8.028e+07  6.84%     -  304s
     0     0 -8.027e+07    0 11302 -7.514e+07 -8.027e+07  6.83%     -  392s
     0     0 -8.027e+07    0 11266 -7.514e+07 -8.027e+07  6.83%     -  410s
     0     0 -8.027e+07    0 11262 -7.514e+07 -8.027e+07  6.83%     -  423s
     0     0 -8.027e+07    0 11271 -7.514e+07 -8.027e+07  6.83%     -  431s
     0     0 -8.021e+07    0 14320 -7.514e+07 -8.021e+07  6.74%     -  564s
     0     0 -8.013e+07    0 17312 -7.514e+07 -8.013e+07  6.64%     -  741s
     0     0 -8.007e+07    0 17440 -7.514e+07 -8.007e+07  6.56%     -  802s
     0     0 -8.005e+07    0 18246 -7.514e+07 -8.005e+07  6.53%     -  852s
     0     0 -8.004e+07    0 20015 -7.514e+07 -8.004e+07  6.53%     -  900s
     0     0 -8.004e+07    0 20938 -7.514e+07 -8.004e+07  6.52%     -  934s
     0     0 -8.004e+07    0 20933 -7.514e+07 -8.004e+07  6.52%     -  940s
     0     0 -8.004e+07    0 20938 -7.514e+07 -8.004e+07  6.52%     -  944s
     0     0 -8.004e+07    0 20948 -7.514e+07 -8.004e+07  6.52%     -  946s
     0     0 -7.992e+07    0 20408 -7.514e+07 -7.992e+07  6.36%     - 1070s
     0     0 -7.980e+07    0 19864 -7.514e+07 -7.980e+07  6.20%     - 1241s
     0     0 -7.975e+07    0 20121 -7.514e+07 -7.975e+07  6.13%     - 1306s
     0     0 -7.973e+07    0 20264 -7.514e+07 -7.973e+07  6.11%     - 1340s
     0     0 -7.972e+07    0 20861 -7.514e+07 -7.972e+07  6.10%     - 1367s
     0     0 -7.972e+07    0 21471 -7.514e+07 -7.972e+07  6.10%     - 1390s
     0     0 -7.972e+07    0 21373 -7.514e+07 -7.972e+07  6.10%     - 1400s
     0     0 -7.972e+07    0 21426 -7.514e+07 -7.972e+07  6.10%     - 1405s
     0     0 -7.948e+07    0 18917 -7.514e+07 -7.948e+07  5.77%     - 1559s
H    0     0                    -7.64148e+07 -7.948e+07  4.01%     - 1596s
H    0     0                    -7.64161e+07 -7.948e+07  4.01%     - 1668s
     0     0 -7.940e+07    0 18312 -7.642e+07 -7.940e+07  3.90%     - 1726s
     0     0 -7.938e+07    0 18799 -7.642e+07 -7.938e+07  3.88%     - 1754s
     0     0 -7.937e+07    0 19035 -7.642e+07 -7.937e+07  3.87%     - 1778s
     0     0 -7.937e+07    0 19306 -7.642e+07 -7.937e+07  3.86%     - 1799s
     0     0 -7.937e+07    0 19536 -7.642e+07 -7.937e+07  3.86%     - 1809s
     0     0 -7.937e+07    0 19708 -7.642e+07 -7.937e+07  3.86%     - 1815s
     0     0 -7.926e+07    0 17869 -7.642e+07 -7.926e+07  3.72%     - 1967s
H    0     0                    -7.66082e+07 -7.926e+07  3.46%     - 1972s
H    0     0                    -7.66084e+07 -7.926e+07  3.46%     - 2016s
     0     0 -7.923e+07    0 17759 -7.661e+07 -7.923e+07  3.42%     - 2053s
     0     0 -7.922e+07    0 17774 -7.661e+07 -7.922e+07  3.40%     - 2080s
     0     0 -7.921e+07    0 17999 -7.661e+07 -7.921e+07  3.40%     - 2097s
     0     0 -7.921e+07    0 18219 -7.661e+07 -7.921e+07  3.40%     - 2106s
     0     0 -7.921e+07    0 18400 -7.661e+07 -7.921e+07  3.40%     - 2110s
     0     0 -7.912e+07    0 16380 -7.661e+07 -7.912e+07  3.28%     - 2192s
H    0     0                    -7.66523e+07 -7.912e+07  3.22%     - 2195s
     0     0 -7.911e+07    0 16129 -7.665e+07 -7.911e+07  3.20%     - 2246s
     0     0 -7.910e+07    0 16473 -7.665e+07 -7.910e+07  3.20%     - 2256s
     0     0 -7.910e+07    0 16717 -7.665e+07 -7.910e+07  3.20%     - 2263s
     0     0 -7.910e+07    0 16886 -7.665e+07 -7.910e+07  3.20%     - 2267s
     0     0 -7.907e+07    0 15843 -7.665e+07 -7.907e+07  3.15%     - 2345s
H    0     0                    -7.68237e+07 -7.907e+07  2.92%     - 2373s
H    0     0                    -7.68237e+07 -7.907e+07  2.92%     - 2402s
     0     0 -7.906e+07    0 15916 -7.682e+07 -7.906e+07  2.91%     - 2420s
     0     0 -7.906e+07    0 16206 -7.682e+07 -7.906e+07  2.91%     - 2435s
     0     0 -7.906e+07    0 16335 -7.682e+07 -7.906e+07  2.91%     - 2442s
     0     0 -7.904e+07    0 15409 -7.682e+07 -7.904e+07  2.88%     - 2575s
     0     0 -7.904e+07    0 15606 -7.682e+07 -7.904e+07  2.88%     - 2588s
     0     0 -7.904e+07    0 15733 -7.682e+07 -7.904e+07  2.88%     - 2597s
     0     0 -7.903e+07    0 15386 -7.682e+07 -7.903e+07  2.87%     - 2718s
H    0     0                    -7.68434e+07 -7.903e+07  2.84%     - 2760s
     0     0 -7.902e+07    0 15480 -7.684e+07 -7.902e+07  2.84%     - 2766s
     0     0 -7.902e+07    0 15716 -7.684e+07 -7.902e+07  2.84%     - 2769s
     0     0 -7.902e+07    0 15387 -7.684e+07 -7.902e+07  2.83%     - 2848s
     0     0 -7.902e+07    0 12438 -7.684e+07 -7.902e+07  2.83%     - 2969s
H    0     0                    -7.76511e+07 -7.902e+07  1.76%     - 2989s

Cutting planes:
  Gomory: 231
  Cover: 4015
  Implied bound: 2293
  MIR: 13016
  StrongCG: 11
  Flow cover: 14086
  Zero half: 100

Explored 1 nodes (899334 simplex iterations) in 2989.53 seconds
Thread count was 8 (of 8 available processors)

Solution count 10: -7.76511e+07 -7.68434e+07 -7.68237e+07 ... -7.51404e+07

Optimal solution found (tolerance 2.50e-02)
Best objective -7.765105802187e+07, best bound -7.901851255432e+07, gap 1.7610%
